Minimize
  obj: x0 + x1 + x2 + x3 + x4 + x5 + x6 + x7

Subject To
  c0: x6 + x7 = 10
  c1: x4 + x5 = 13
  c2: x1 + x2 + x3 + x4 + x6 = 38
  c3: x0 + x1 + x4 + x6 = 17
  c4: x2 + x5 + x6 = 34
  c5: x1 + x4 + x5 + x7 = 15
  c6: x1 + x4 + x5 + x6 = 21
  c7: x0 + x1 + x3 + x4 + x6 + x7 = 36
  c8: x1 + x2 + x4 + x5 + x6 + x7 = 36

Bounds
  x0 >= 0
  x1 >= 0
  x2 >= 0
  x3 >= 0
  x4 >= 0
  x5 >= 0
  x6 >= 0
  x7 >= 0

Generals
  x0 x1 x2 x3 x4 x5 x6 x7

End
